c *********************************
c * Circuit generated by BenCGen
c *
c * CarrySaveMultiplier_6
c *
c * Ports with 1 gate(s): 2
c * Ports with 2 gate(s): 181
c * Total gates: 183
c *********************************
p cnf 195 607
1 26 0
-1 -26 0
1 -25 0
26 -25 0
-1 -26 25 0
1 -27 0
7 -27 0
-1 -7 27 0
2 -28 0
7 -28 0
-2 -7 28 0
3 -29 0
7 -29 0
-3 -7 29 0
4 -30 0
7 -30 0
-4 -7 30 0
5 -31 0
7 -31 0
-5 -7 31 0
6 -32 0
7 -32 0
-6 -7 32 0
1 -33 0
8 -33 0
-1 -8 33 0
2 -34 0
8 -34 0
-2 -8 34 0
3 -35 0
8 -35 0
-3 -8 35 0
4 -36 0
8 -36 0
-4 -8 36 0
5 -37 0
8 -37 0
-5 -8 37 0
6 -38 0
8 -38 0
-6 -8 38 0
1 -39 0
9 -39 0
-1 -9 39 0
2 -40 0
9 -40 0
-2 -9 40 0
3 -41 0
9 -41 0
-3 -9 41 0
4 -42 0
9 -42 0
-4 -9 42 0
5 -43 0
9 -43 0
-5 -9 43 0
6 -44 0
9 -44 0
-6 -9 44 0
1 -45 0
10 -45 0
-1 -10 45 0
2 -46 0
10 -46 0
-2 -10 46 0
3 -47 0
10 -47 0
-3 -10 47 0
4 -48 0
10 -48 0
-4 -10 48 0
5 -49 0
10 -49 0
-5 -10 49 0
6 -50 0
10 -50 0
-6 -10 50 0
1 -51 0
11 -51 0
-1 -11 51 0
2 -52 0
11 -52 0
-2 -11 52 0
3 -53 0
11 -53 0
-3 -11 53 0
4 -54 0
11 -54 0
-4 -11 54 0
5 -55 0
11 -55 0
-5 -11 55 0
6 -56 0
11 -56 0
-6 -11 56 0
1 -57 0
12 -57 0
-1 -12 57 0
2 -58 0
12 -58 0
-2 -12 58 0
3 -59 0
12 -59 0
-3 -12 59 0
4 -60 0
12 -60 0
-4 -12 60 0
5 -61 0
12 -61 0
-5 -12 61 0
6 -62 0
12 -62 0
-6 -12 62 0
27 -13 0
-27 13 0
28 33 -14 0
-28 33 14 0
28 -33 14 0
-28 -33 -14 0
28 -68 0
33 -68 0
-28 -33 68 0
29 34 -63 0
-29 34 63 0
29 -34 63 0
-29 -34 -63 0
29 -69 0
34 -69 0
-29 -34 69 0
30 35 -64 0
-30 35 64 0
30 -35 64 0
-30 -35 -64 0
30 -70 0
35 -70 0
-30 -35 70 0
31 36 -65 0
-31 36 65 0
31 -36 65 0
-31 -36 -65 0
31 -71 0
36 -71 0
-31 -36 71 0
32 37 -66 0
-32 37 66 0
32 -37 66 0
-32 -37 -66 0
32 -72 0
37 -72 0
-32 -37 72 0
25 38 -67 0
-25 38 67 0
25 -38 67 0
-25 -38 -67 0
25 -73 0
38 -73 0
-25 -38 73 0
44 73 -78 0
-44 73 78 0
44 -73 78 0
-44 -73 -78 0
44 -99 0
73 -99 0
-44 -73 99 0
50 99 -104 0
-50 99 104 0
50 -99 104 0
-50 -99 -104 0
50 -125 0
99 -125 0
-50 -99 125 0
56 125 -130 0
-56 125 130 0
56 -125 130 0
-56 -125 -130 0
56 -151 0
125 -151 0
-56 -125 151 0
62 151 -156 0
-62 151 156 0
62 -151 156 0
-62 -151 -156 0
62 -177 0
151 -177 0
-62 -151 177 0
157 152 -19 0
-157 152 19 0
157 -152 19 0
-157 -152 -19 0
157 -178 0
152 -178 0
-157 -152 178 0
177 191 -24 0
-177 191 24 0
177 -191 24 0
-177 -191 -24 0
177 -195 0
191 -195 0
-177 -191 195 0
39 63 -80 0
-39 63 80 0
39 -63 80 0
-39 -63 -80 0
80 68 -15 0
-80 68 15 0
80 -68 15 0
-80 -68 -15 0
68 -81 0
80 -81 0
-68 -80 81 0
63 -82 0
39 -82 0
-63 -39 82 0
-81 79 0
-82 79 0
81 82 -79 0
40 64 -84 0
-40 64 84 0
40 -64 84 0
-40 -64 -84 0
84 69 -74 0
-84 69 74 0
84 -69 74 0
-84 -69 -74 0
69 -85 0
84 -85 0
-69 -84 85 0
64 -86 0
40 -86 0
-64 -40 86 0
-85 83 0
-86 83 0
85 86 -83 0
41 65 -88 0
-41 65 88 0
41 -65 88 0
-41 -65 -88 0
88 70 -75 0
-88 70 75 0
88 -70 75 0
-88 -70 -75 0
70 -89 0
88 -89 0
-70 -88 89 0
65 -90 0
41 -90 0
-65 -41 90 0
-89 87 0
-90 87 0
89 90 -87 0
42 66 -92 0
-42 66 92 0
42 -66 92 0
-42 -66 -92 0
92 71 -76 0
-92 71 76 0
92 -71 76 0
-92 -71 -76 0
71 -93 0
92 -93 0
-71 -92 93 0
66 -94 0
42 -94 0
-66 -42 94 0
-93 91 0
-94 91 0
93 94 -91 0
43 67 -96 0
-43 67 96 0
43 -67 96 0
-43 -67 -96 0
96 72 -77 0
-96 72 77 0
96 -72 77 0
-96 -72 -77 0
72 -97 0
96 -97 0
-72 -96 97 0
67 -98 0
43 -98 0
-67 -43 98 0
-97 95 0
-98 95 0
97 98 -95 0
45 74 -106 0
-45 74 106 0
45 -74 106 0
-45 -74 -106 0
106 79 -16 0
-106 79 16 0
106 -79 16 0
-106 -79 -16 0
79 -107 0
106 -107 0
-79 -106 107 0
74 -108 0
45 -108 0
-74 -45 108 0
-107 105 0
-108 105 0
107 108 -105 0
46 75 -110 0
-46 75 110 0
46 -75 110 0
-46 -75 -110 0
110 83 -100 0
-110 83 100 0
110 -83 100 0
-110 -83 -100 0
83 -111 0
110 -111 0
-83 -110 111 0
75 -112 0
46 -112 0
-75 -46 112 0
-111 109 0
-112 109 0
111 112 -109 0
47 76 -114 0
-47 76 114 0
47 -76 114 0
-47 -76 -114 0
114 87 -101 0
-114 87 101 0
114 -87 101 0
-114 -87 -101 0
87 -115 0
114 -115 0
-87 -114 115 0
76 -116 0
47 -116 0
-76 -47 116 0
-115 113 0
-116 113 0
115 116 -113 0
48 77 -118 0
-48 77 118 0
48 -77 118 0
-48 -77 -118 0
118 91 -102 0
-118 91 102 0
118 -91 102 0
-118 -91 -102 0
91 -119 0
118 -119 0
-91 -118 119 0
77 -120 0
48 -120 0
-77 -48 120 0
-119 117 0
-120 117 0
119 120 -117 0
49 78 -122 0
-49 78 122 0
49 -78 122 0
-49 -78 -122 0
122 95 -103 0
-122 95 103 0
122 -95 103 0
-122 -95 -103 0
95 -123 0
122 -123 0
-95 -122 123 0
78 -124 0
49 -124 0
-78 -49 124 0
-123 121 0
-124 121 0
123 124 -121 0
51 100 -132 0
-51 100 132 0
51 -100 132 0
-51 -100 -132 0
132 105 -17 0
-132 105 17 0
132 -105 17 0
-132 -105 -17 0
105 -133 0
132 -133 0
-105 -132 133 0
100 -134 0
51 -134 0
-100 -51 134 0
-133 131 0
-134 131 0
133 134 -131 0
52 101 -136 0
-52 101 136 0
52 -101 136 0
-52 -101 -136 0
136 109 -126 0
-136 109 126 0
136 -109 126 0
-136 -109 -126 0
109 -137 0
136 -137 0
-109 -136 137 0
101 -138 0
52 -138 0
-101 -52 138 0
-137 135 0
-138 135 0
137 138 -135 0
53 102 -140 0
-53 102 140 0
53 -102 140 0
-53 -102 -140 0
140 113 -127 0
-140 113 127 0
140 -113 127 0
-140 -113 -127 0
113 -141 0
140 -141 0
-113 -140 141 0
102 -142 0
53 -142 0
-102 -53 142 0
-141 139 0
-142 139 0
141 142 -139 0
54 103 -144 0
-54 103 144 0
54 -103 144 0
-54 -103 -144 0
144 117 -128 0
-144 117 128 0
144 -117 128 0
-144 -117 -128 0
117 -145 0
144 -145 0
-117 -144 145 0
103 -146 0
54 -146 0
-103 -54 146 0
-145 143 0
-146 143 0
145 146 -143 0
55 104 -148 0
-55 104 148 0
55 -104 148 0
-55 -104 -148 0
148 121 -129 0
-148 121 129 0
148 -121 129 0
-148 -121 -129 0
121 -149 0
148 -149 0
-121 -148 149 0
104 -150 0
55 -150 0
-104 -55 150 0
-149 147 0
-150 147 0
149 150 -147 0
57 126 -158 0
-57 126 158 0
57 -126 158 0
-57 -126 -158 0
158 131 -18 0
-158 131 18 0
158 -131 18 0
-158 -131 -18 0
131 -159 0
158 -159 0
-131 -158 159 0
126 -160 0
57 -160 0
-126 -57 160 0
-159 157 0
-160 157 0
159 160 -157 0
58 127 -162 0
-58 127 162 0
58 -127 162 0
-58 -127 -162 0
162 135 -152 0
-162 135 152 0
162 -135 152 0
-162 -135 -152 0
135 -163 0
162 -163 0
-135 -162 163 0
127 -164 0
58 -164 0
-127 -58 164 0
-163 161 0
-164 161 0
163 164 -161 0
59 128 -166 0
-59 128 166 0
59 -128 166 0
-59 -128 -166 0
166 139 -153 0
-166 139 153 0
166 -139 153 0
-166 -139 -153 0
139 -167 0
166 -167 0
-139 -166 167 0
128 -168 0
59 -168 0
-128 -59 168 0
-167 165 0
-168 165 0
167 168 -165 0
60 129 -170 0
-60 129 170 0
60 -129 170 0
-60 -129 -170 0
170 143 -154 0
-170 143 154 0
170 -143 154 0
-170 -143 -154 0
143 -171 0
170 -171 0
-143 -170 171 0
129 -172 0
60 -172 0
-129 -60 172 0
-171 169 0
-172 169 0
171 172 -169 0
61 130 -174 0
-61 130 174 0
61 -130 174 0
-61 -130 -174 0
174 147 -155 0
-174 147 155 0
174 -147 155 0
-174 -147 -155 0
147 -175 0
174 -175 0
-147 -174 175 0
130 -176 0
61 -176 0
-130 -61 176 0
-175 173 0
-176 173 0
175 176 -173 0
161 153 -180 0
-161 153 180 0
161 -153 180 0
-161 -153 -180 0
180 178 -20 0
-180 178 20 0
180 -178 20 0
-180 -178 -20 0
178 -181 0
180 -181 0
-178 -180 181 0
153 -182 0
161 -182 0
-153 -161 182 0
-181 179 0
-182 179 0
181 182 -179 0
165 154 -184 0
-165 154 184 0
165 -154 184 0
-165 -154 -184 0
184 179 -21 0
-184 179 21 0
184 -179 21 0
-184 -179 -21 0
179 -185 0
184 -185 0
-179 -184 185 0
154 -186 0
165 -186 0
-154 -165 186 0
-185 183 0
-186 183 0
185 186 -183 0
169 155 -188 0
-169 155 188 0
169 -155 188 0
-169 -155 -188 0
188 183 -22 0
-188 183 22 0
188 -183 22 0
-188 -183 -22 0
183 -189 0
188 -189 0
-183 -188 189 0
155 -190 0
169 -190 0
-155 -169 190 0
-189 187 0
-190 187 0
189 190 -187 0
173 156 -192 0
-173 156 192 0
173 -156 192 0
-173 -156 -192 0
192 187 -23 0
-192 187 23 0
192 -187 23 0
-192 -187 -23 0
187 -193 0
192 -193 0
-187 -192 193 0
156 -194 0
173 -194 0
-156 -173 194 0
-193 191 0
-194 191 0
193 194 -191 0
